NAME          OrnekMPS

OBJSENSE
 MAX
ROWS
 N  COST
 L  LIM1
 L  LIM2
 L  LIM3
 L  LIM4
COLUMNS
    X1        COST               8.0   LIM1               2.0
	X1			LIM2 3.0			LIM3	1.0
	X1 			LIM4 1.0
    X2        COST               5.0   LIM1               1.0
	X2		LIM2  4.0		LIM3 1.0
	X2		LIM4 -1.0
RHS
    RHS1      LIM1               1200.0		LIM2	2400.0
	RHS1 		LIM3	800.0		LIM4	450.0
ENDATA
